(set-logic UFLIA)
(declare-sort A 0)
(declare-sort listB 0)
(declare-fun g (A) listB)
(declare-fun f (A) listB)
(declare-fun y () A)
(declare-fun x () A)
(assert (not (=> (= x y) (= (f x) (f y)))))
(assert (forall ( (a A) ) (= (f a) (g a))))
(check-sat)
(exit)
